s td 16 75 90
b 1 1 2 3 4 5 6 7 8 9 10 11 12 13 14 16 17 18 19 20 21 22 23 24 26 27 28 29 30 31 32 33 34 35 36 37 38 39 40 41 43 44 45 46 47 49 50 53 54 55 56 58 61 62 63 65 66 67 69 70 71 75 76 77 78 79 80 81 82 83 84 86 87 88 89 90
b 2 1 2 3 4 5 6 7 8 9 10 12 13 14 16 17 18 19 20 21 22 23 24 26 27 28 29 30 31 32 33 34 35 36 37 38 39 40 41 43 44 45 46 47 48 49 50 53 54 55 56 58 61 62 63 65 66 67 69 70 71 75 76 77 78 79 80 81 82 83 84 86 87 88 89 90
b 3 1 2 3 4 5 6 7 8 9 10 12 13 14 15 16 17 18 19 20 21 22 23 24 26 27 28 29 30 31 32 33 34 35 36 37 38 39 40 41 43 44 45 46 48 49 50 53 54 55 56 58 61 62 63 65 66 67 69 70 71 75 76 77 78 79 80 81 82 83 84 86 87 88 89 90
b 4 1 3 4 5 6 7 8 9 10 12 13 14 15 16 17 18 19 20 21 22 23 24 26 27 28 29 30 31 32 33 34 35 36 37 38 39 40 41 42 44 45 46 48 49 50 53 54 55 56 58 61 62 63 65 66 67 69 70 71 75 76 77 78 79 80 81 82 83 84 86 87 88 89 90
b 5 1 3 4 5 6 7 8 9 10 12 13 14 15 16 17 18 19 20 21 22 23 24 26 27 28 29 30 31 32 33 34 35 36 37 38 39 40 41 42 44 45 46 48 49 50 51 53 54 55 56 58 61 62 63 65 67 69 70 71 75 76 77 78 79 81 82 83 84 86 87 88 89 90
b 6 1 3 4 5 6 7 8 9 10 13 14 15 16 17 19 20 21 22 23 24 26 27 28 29 30 31 32 33 34 35 37 38 39 40 41 42 45 46 48 49 50 51 52 53 54 55 56 58 61 63 65 67 69 70 71 75 76 77 78 79 81 83 84 86 88 89 90
b 7 3 4 5 6 7 8 9 10 13 14 15 17 19 20 21 22 23 24 25 26 27 28 29 30 31 32 33 34 35 37 38 39 40 41 42 45 46 48 49 50 52 53 54 55 56 58 61 63 65 67 69 71 75 76 77 78 81 83 84 86 88 89 90
b 8 3 6 9 10 13 14 15 17 19 20 22 23 25 26 27 29 31 33 35 38 39 40 41 45 46 48 53 54 56 63 65 67 71 74 77 78 81 86 88 89 90
b 9 1 4 6 8 12 13 14 15 17 18 19 20 21 22 26 28 29 30 32 33 35 38 40 41 46 48 49 51 53 54 56 58 63 65 68 69 75 76 79 82 83 84 86 87 88 90
b 10 1 2 3 4 5 6 7 8 9 10 11 12 13 14 16 17 18 19 20 21 22 23 24 26 27 28 29 31 32 33 34 35 36 37 38 39 40 41 43 44 45 46 47 49 50 53 54 55 56 57 58 61 62 63 65 66 67 69 70 71 75 76 77 78 79 80 81 82 83 84 86 87 88 89 90
b 11 1 2 3 4 5 6 7 8 9 10 11 12 13 14 16 17 18 19 20 21 22 23 24 26 27 28 29 31 32 33 34 35 36 37 38 39 40 43 44 45 46 47 49 50 53 54 56 57 58 62 63 65 66 67 69 70 71 73 75 76 77 78 79 80 81 82 83 84 86 87 88 89 90
b 12 1 2 3 4 5 6 7 8 9 10 11 12 14 16 18 19 20 21 22 23 24 26 27 28 29 31 32 33 34 35 36 37 38 39 40 43 44 46 47 49 50 53 54 56 57 58 60 62 63 65 66 67 69 70 71 73 75 76 77 78 79 80 81 82 83 84 86 87 88 89 90
b 13 1 2 3 4 5 6 7 8 9 10 11 12 14 16 18 19 20 22 23 24 26 27 29 31 32 34 35 36 37 38 39 40 43 44 46 47 49 50 53 54 56 57 58 60 62 63 66 67 69 71 72 73 75 76 77 78 79 80 81 82 83 84 86 87 88 89 90
b 14 3 4 5 6 7 8 9 11 12 14 18 19 20 22 23 24 27 29 32 34 35 36 38 40 43 44 46 47 49 50 53 54 56 57 58 59 60 62 63 66 67 71 72 73 75 76 78 80 82 83 84 86 87 88 89 90
b 15 3 7 8 14 18 20 22 23 24 27 29 32 34 35 36 38 40 43 44 46 50 53 54 56 59 60 62 63 64 67 72 75 82 83 84 86 89
b 16 1 2 3 4 5 6 7 8 9 12 14 16 17 18 19 21 24 26 27 33 34 36 40 43 45 46 47 50 53 55 56 57 58 61 65 70 71 75 77 78 79 80 81 83 85 87 89
1 2
1 10
2 3
3 4
4 5
5 6
5 9
6 7
7 8
10 11
10 16
11 12
12 13
13 14
14 15
